p cnf 21 18
1 2 0
-1 3 0
4 5 6 1 7 0
4 5 6 -1 10 0
4 5 -6 1 11 0
4 5 -6 -1 9 0
4 -5 6 1 8 0
4 -5 6 -1 12 0
4 -5 -6 1 13 0
4 -5 -6 -1 14 0
-4 5 6 1 15 0
-4 5 6 -1 16 0
-4 5 -6 1 20 0
-4 5 -6 -1 17 0
-4 -5 6 1 18 0
-4 -5 6 -1 21 0
-4 -5 -6 1 19 0
-4 -5 -6 -1 10 0
